c User generated cnf file
p cnf 10 30
3 -5 4 0 
5 6 -6 0 
10 3 -1 0 
2 2 -10 0 
6 5 -5 0 
8 -4 1 0 
8 -10 3 0 
-4 10 3 0 
-2 9 3 0 
4 2 -2 0 
-7 10 2 0 
5 2 -9 0 
-7 4 9 0 
-6 3 7 0 
2 9 -2 0 
5 -2 1 0 
-1 5 7 0 
5 1 -4 0 
-9 2 3 0 
5 -7 10 0 
1 10 -10 0 
10 -4 1 0 
5 -2 10 0 
3 5 -8 0 
2 -6 3 0 
10 -7 3 0 
-8 6 6 0 
5 5 -10 0 
7 -10 6 0 
7 5 -10 0 
